(set-logic QF_LRA)
(declare-fun X0 () Real )
(declare-fun Y0 () Real )
(declare-fun X1 () Real )
(declare-fun Y1 () Real )
(declare-fun X2 () Real )
(declare-fun Y2 () Real )
(declare-fun X3 () Real )
(declare-fun Y3 () Real )
(declare-fun X4 () Real )
(declare-fun Y4 () Real )
(declare-fun X5 () Real )
(declare-fun Y5 () Real )
(declare-fun Z () Real )
(assert ( and  
( or ( <= ( + X0 23 ) X1 )  ( <= ( + X1 20 ) X0 )  ( <= ( + Y0 48 ) Y1 )  ( <= ( + Y1 13 ) Y0 )  )
( or ( <= ( + X0 23 ) X2 )  ( <= ( + X2 44 ) X0 )  ( <= ( + Y0 48 ) Y2 )  ( <= ( + Y2 2 ) Y0 )  )
( or ( <= ( + X0 23 ) X3 )  ( <= ( + X3 73 ) X0 )  ( <= ( + Y0 48 ) Y3 )  ( <= ( + Y3 27 ) Y0 )  )
( or ( <= ( + X0 23 ) X4 )  ( <= ( + X4 40 ) X0 )  ( <= ( + Y0 48 ) Y4 )  ( <= ( + Y4 29 ) Y0 )  )
( or ( <= ( + X0 23 ) X5 )  ( <= ( + X5 19 ) X0 )  ( <= ( + Y0 48 ) Y5 )  ( <= ( + Y5 96 ) Y0 )  )
( or ( <= ( + X1 20 ) X2 )  ( <= ( + X2 44 ) X1 )  ( <= ( + Y1 13 ) Y2 )  ( <= ( + Y2 2 ) Y1 )  )
( or ( <= ( + X1 20 ) X3 )  ( <= ( + X3 73 ) X1 )  ( <= ( + Y1 13 ) Y3 )  ( <= ( + Y3 27 ) Y1 )  )
( or ( <= ( + X1 20 ) X4 )  ( <= ( + X4 40 ) X1 )  ( <= ( + Y1 13 ) Y4 )  ( <= ( + Y4 29 ) Y1 )  )
( or ( <= ( + X1 20 ) X5 )  ( <= ( + X5 19 ) X1 )  ( <= ( + Y1 13 ) Y5 )  ( <= ( + Y5 96 ) Y1 )  )
( or ( <= ( + X2 44 ) X3 )  ( <= ( + X3 73 ) X2 )  ( <= ( + Y2 2 ) Y3 )  ( <= ( + Y3 27 ) Y2 )  )
( or ( <= ( + X2 44 ) X4 )  ( <= ( + X4 40 ) X2 )  ( <= ( + Y2 2 ) Y4 )  ( <= ( + Y4 29 ) Y2 )  )
( or ( <= ( + X2 44 ) X5 )  ( <= ( + X5 19 ) X2 )  ( <= ( + Y2 2 ) Y5 )  ( <= ( + Y5 96 ) Y2 )  )
( or ( <= ( + X3 73 ) X4 )  ( <= ( + X4 40 ) X3 )  ( <= ( + Y3 27 ) Y4 )  ( <= ( + Y4 29 ) Y3 )  )
( or ( <= ( + X3 73 ) X5 )  ( <= ( + X5 19 ) X3 )  ( <= ( + Y3 27 ) Y5 )  ( <= ( + Y5 96 ) Y3 )  )
( or ( <= ( + X4 40 ) X5 )  ( <= ( + X5 19 ) X4 )  ( <= ( + Y4 29 ) Y5 )  ( <= ( + Y5 96 ) Y4 )  )
( >= X0 0)
( <= ( + X0 23) Z)
( >= Y0 0)
( <= ( + Y0 48 ) 122)
( >= X1 0)
( <= ( + X1 20) Z)
( >= Y1 0)
( <= ( + Y1 13 ) 122)
( >= X2 0)
( <= ( + X2 44) Z)
( >= Y2 0)
( <= ( + Y2 2 ) 122)
( >= X3 0)
( <= ( + X3 73) Z)
( >= Y3 0)
( <= ( + Y3 27 ) 122)
( >= X4 0)
( <= ( + X4 40) Z)
( >= Y4 0)
( <= ( + Y4 29 ) 122)
( >= X5 0)
( <= ( + X5 19) Z)
( >= Y5 0)
( <= ( + Y5 96 ) 122)
) )
(minimize Z)
(check-sat)
